(declare-const i2 Int)
(declare-const i4 Int)
(declare-const i7 Int)
(declare-const i9 Int)
(declare-const i10 Int)
(declare-const i13 Int)
(declare-const i14 Int)
(declare-const i15 Int)
(check-sat)
